% Data for perfect square placement problem:
% http://www.hakank.org/minizinc/perfect_square_placement.mzn
% Data is originally from CSPLib:
% http://www.cs.st-andrews.ac.uk/~ianm/CSPLib/prob/prob009/results

% problem 9 
n = 192;
size = 22;
a = [4,8,9,10,12,14,17,19,26,28,31,35,36,37,41,47,49,57,59,62,71,86];

